Optimal - objective value 5231.00000000
      0 C0000000               1                       0
      1 C0000001               1                       0
      2 C0000002              -8                       0
      3 C0000003               8                       0
      4 C0000004              -2                       0
      5 C0000005              -5                       0
      6 C0000006              -3                       0
      7 C0000007              -7                       0
      8 C0000008              -6                       0
      9 C0000009              -4                       0
     10 C0000010              -2                       0
     11 C0000011               1                       0
     12 C0000012               1                       0
     13 C0000013               7                       0
     14 C0000014               8                       0
     15 C0000015               3                       0
     16 C0000016               5                       0
     17 C0000017               8                       0
     18 C0000018               2                       0
     19 C0000019               4                       0
     20 C0000020               6                       0
     21 C0000021               1                       0
     22 C0000022               1                       0
     23 C0000023              -7                       0
     24 C0000024              -8                       0
     25 C0000025              -4                       0
     26 C0000026              -2                       0
     27 C0000027              -6                       0
     28 C0000028              -5                       0
     29 C0000029              -3                       0
     30 C0000030               8                       0
     31 C0000031               1                       0
     32 C0000032               1                       0
     33 C0000033               8                       0
     34 C0000034               8                       0
     35 C0000035               4                       0
     36 C0000036               6                       0
     37 C0000037               2                       0
     38 C0000038               3                       0
     39 C0000039               5                       0
     40 C0000040               7                       0
     41 C0000041               1                       0
     42 C0000042               1                       0
     43 C0000043              -3                       0
     44 C0000044               4                       0
     45 C0000045              -4                       0
     46 C0000046               2                       0
     47 C0000047              -2                       0
     48 C0000048               8                       0
     49 C0000049               8                       0
     50 C0000050               3                       0
     51 C0000051               1                       0
     52 C0000052               1                       0
     53 C0000053              -5                       0
     54 C0000054               2                       0
     55 C0000055              -6                       0
     56 C0000056              -2                       0
     57 C0000057              -4                       0
     58 C0000058              -3                       0
     59 C0000059               8                       0
     60 C0000060               8                       0
     61 C0000061               1                       0
     62 C0000062               1                       0
     63 C0000063               8                       0
     64 C0000064               6                       0
     65 C0000065              -2                       0
     66 C0000066               2                       0
     67 C0000067               4                       0
     68 C0000068               8                       0
     69 C0000069               3                       0
     70 C0000070               5                       0
     71 C0000071               1                       0
     72 C0000072               1                       0
     73 C0000073              -2                       0
     74 C0000074               5                       0
     75 C0000075              -3                       0
     76 C0000076               8                       0
     77 C0000077               3                       0
     78 C0000078               8                       0
     79 C0000079               2                       0
     80 C0000080               4                       0
     81 C0000081               1                       0
     82 C0000082               1                       0
     83 C0000083              -4                       0
     84 C0000084               3                       0
     85 C0000085              -5                       0
     86 C0000086               8                       0
     87 C0000087               8                       0
     88 C0000088              -3                       0
     89 C0000089              -2                       0
     90 C0000090               2                       0
     91 C0000091               1                       0
     92 C0000092               1                       0
     93 C0000093              -6                       0
     94 C0000094               8                       0
     95 C0000095              -7                       0
     96 C0000096              -3                       0
     97 C0000097               8                       0
     98 C0000098              -5                       0
     99 C0000099              -4                       0
    100 C0000100              -2                       0
    101 C0000101              -8                       0
    102 C0000102               8                       0
    103 C0000103              -2                       0
    104 C0000104              -6                       0
    105 C0000105              -2                       0
    106 C0000106               8                       0
    107 C0000107              -5                       0
    108 C0000108               5                       0
    109 C0000109              -3                       0
    110 C0000110               3                       0
    111 C0000111              -7                       0
    112 C0000112               7                       0
    113 C0000113              -6                       0
    114 C0000114               6                       0
    115 C0000115              -4                       0
    116 C0000116               4                       0
    117 C0000117              -2                       0
    118 C0000118               2                       0
    119 C0000119 -5.6843419e-014                       0
    120 C0000120  5.6843419e-014                       0
      0 X0000000             334                       0
      1 X0000001             295                       0
      2 X0000002               0                       0
      3 X0000003               8                       0
      4 X0000004               1                       0
      5 X0000005               9                       0
      6 X0000006               5                       0
      7 X0000007               3                       0
      8 X0000008               7                       0
      9 X0000009               6                       0
     10 X0000010               4                       0
     11 X0000011               2                       0
     12 X0000012               0                   486.2
     13 X0000013               1                   623.2
     14 X0000014               0                   455.2
     15 X0000015               0                  1251.8
     16 X0000016               0                   746.6
     17 X0000017               0                     797
     18 X0000018               0                   481.6
     19 X0000019               0                  1260.8
     20 X0000020               0                   641.2
     21 X0000021               0                   486.2
     22 X0000022               0                  1109.4
     23 X0000023               1                    50.6
     24 X0000024               0                  1378.2
     25 X0000025               0                  1189.2
     26 X0000026               0                   604.2
     27 X0000027               0                   747.2
     28 X0000028               0                  1693.8
     29 X0000029               0                  1119.4
     30 X0000030               0                   623.2
     31 X0000031               0                  1109.4
     32 X0000032               0                  1078.4
     33 X0000033               0                  1159.2
     34 X0000034               0                   130.4
     35 X0000035               0                  1240.2
     36 X0000036               0                   598.8
     37 X0000037               0                   660.2
     38 X0000038               1                    70.8
     39 X0000039               1                   455.2
     40 X0000040               0                    50.6
     41 X0000041               0                  1078.4
     42 X0000042               0                  1433.4
     43 X0000043               0                  1184.2
     44 X0000044               0                   604.8
     45 X0000045               0                   767.8
     46 X0000046               0                  1682.8
     47 X0000047               0                  1096.4
     48 X0000048               0                  1251.8
     49 X0000049               0                  1378.2
     50 X0000050               0                  1159.2
     51 X0000051               0                  1433.4
     52 X0000052               0                  1190.8
     53 X0000053               0                  1074.6
     54 X0000054               1                   831.8
     55 X0000055               0                  1200.4
     56 X0000056               0                    1213
     57 X0000057               0                   746.6
     58 X0000058               0                  1189.2
     59 X0000059               0                   130.4
     60 X0000060               0                  1184.2
     61 X0000061               0                  1190.8
     62 X0000062               0                    1270
     63 X0000063               0                     609
     64 X0000064               1                   566.8
     65 X0000065               0                     128
     66 X0000066               0                     797
     67 X0000067               1                   604.2
     68 X0000068               0                  1240.2
     69 X0000069               0                   604.8
     70 X0000070               0                  1074.6
     71 X0000071               0                    1270
     72 X0000072               0                     700
     73 X0000073               0                  1652.4
     74 X0000074               0                  1236.8
     75 X0000075               0                   481.6
     76 X0000076               0                   747.2
     77 X0000077               0                   598.8
     78 X0000078               0                   767.8
     79 X0000079               0                   831.8
     80 X0000080               0                     609
     81 X0000081               1                     700
     82 X0000082               0                  1006.4
     83 X0000083               0                   604.4
     84 X0000084               0                  1260.8
     85 X0000085               0                  1693.8
     86 X0000086               0                   660.2
     87 X0000087               0                  1682.8
     88 X0000088               1                  1200.4
     89 X0000089               0                   566.8
     90 X0000090               0                  1652.4
     91 X0000091               0                  1006.4
     92 X0000092               0                   656.8
     93 X0000093               0                   641.2
     94 X0000094               0                  1119.4
     95 X0000095               0                    70.8
     96 X0000096               0                  1096.4
     97 X0000097               0                    1213
     98 X0000098               1                     128
     99 X0000099               0                  1236.8
    100 X0000100               0                   604.4
    101 X0000101               0                   656.8
